(set-logic ALL)
(set-option :produce-models true)
(set-option :parse-transducers true)
(define-fun-rec toLower ((x String) (y String)) Bool
   (or (and (= x "") (= y ""))
       (and (not (= x "")) (not (= y ""))
           (= (char.code (str.head y))
               (ite (and (<= 65 (char.code (str.head x)))
                       (<= (char.code (str.head x)) 90))
                   (+ (char.code (str.head x)) 32)
                   (char.code (str.head x))))
           (toLower (str.tail x) (str.tail y))))
)
(declare-fun sym205 () String)
(declare-fun sym404 () String)
(declare-fun sym528 () String)
(declare-fun sym606 () String)
(declare-fun sym440 () String)
(declare-fun sym484 () String)
(declare-fun sym562 () String)
(declare-fun sym289 () String)
(declare-fun sym686 () String)
(declare-fun sym642 () String)
(declare-fun sym323 () String)
(declare-fun sym160 () String)
(declare-fun sym414 () String)
(declare-fun sym338 () String)
(declare-fun sym175 () String)
(declare-fun sym494 () String)
(declare-fun sym450 () String)
(declare-fun sym374 () String)
(declare-fun sym254 () String)
(declare-fun sym299 () String)
(declare-fun sym696 () String)
(declare-fun sym652 () String)
(declare-fun sym135 () String)
(declare-fun sym576 () String)
(declare-fun sym215 () String)
(declare-fun sym348 () String)
(declare-fun sym20 () String)
(declare-fun sym504 () String)
(declare-fun sym384 () String)
(declare-fun sym264 () String)
(declare-fun sym662 () String)
(declare-fun sym586 () String)
(declare-fun sym542 () String)
(declare-fun sym225 () String)
(declare-fun sym622 () String)
(declare-fun sym185 () String)
(declare-fun sym460 () String)
(declare-fun sym239 () String)
(declare-fun sym518 () String)
(declare-fun sym430 () String)
(declare-fun sym596 () String)
(declare-fun sym552 () String)
(declare-fun sym113 () String)
(declare-fun sym279 () String)
(declare-fun sym676 () String)
(declare-fun sym313 () String)
(declare-fun sym632 () String)
(declare-fun sym358 () String)
(declare-fun sym150 () String)
(declare-fun sym470 () String)
(declare-fun sym195 () String)
(declare-fun sym394 () String)
(define-fun Alphabet () RegLan 
	(re.* (re.union (str.to_re "A") (str.to_re "B") (str.to_re "C") (str.to_re "D") (str.to_re "E") (str.to_re "F") (str.to_re "G") (str.to_re "H") (str.to_re "I") (str.to_re "J") (str.to_re "K") (str.to_re "L") (str.to_re "M") (str.to_re "N") (str.to_re "O") (str.to_re "P") (str.to_re "Q") (str.to_re "R") (str.to_re "S") (str.to_re "T") (str.to_re "U") (str.to_re "V") (str.to_re "W") (str.to_re "X") (str.to_re "Y") (str.to_re "Z") (str.to_re "a") (str.to_re "b") (str.to_re "c") (str.to_re "d") (str.to_re "e") (str.to_re "f") (str.to_re "g") (str.to_re "h") (str.to_re "i") (str.to_re "j") (str.to_re "k") (str.to_re "l") (str.to_re "m") (str.to_re "n") (str.to_re "o") (str.to_re "p") (str.to_re "q") (str.to_re "r") (str.to_re "s") (str.to_re "t") (str.to_re "u") (str.to_re "v") (str.to_re "w") (str.to_re "x") (str.to_re "y") (str.to_re "z") ))
)
(declare-fun L80  () String)
(assert (toLower sym205  L80 ))
(declare-fun L84  () String)
(assert (toLower sym113  L84 ))
(declare-fun L2  () String)
(assert (toLower sym404  L2 ))
(declare-fun L72  () String)
(assert (toLower sym414  L72 ))
(declare-fun L92  () String)
(assert (toLower sym542  L92 ))
(declare-fun L88  () String)
(assert (toLower sym460  L88 ))
(declare-fun L6  () String)
(assert (toLower sym279  L6 ))
(declare-fun L76  () String)
(assert (toLower sym662  L76 ))
(declare-fun L64  () String)
(assert (toLower sym239  L64 ))
(declare-fun L20  () String)
(assert (toLower sym676  L20 ))
(declare-fun L96  () String)
(assert (toLower sym150  L96 ))
(declare-fun L68  () String)
(assert (toLower sym562  L68 ))
(declare-fun L24  () String)
(assert (toLower sym494  L24 ))
(declare-fun L12  () String)
(assert (toLower sym622  L12 ))
(declare-fun L28  () String)
(assert (toLower sym20  L28 ))
(declare-fun L16  () String)
(assert (toLower sym696  L16 ))
(declare-fun L100  () String)
(assert (toLower sym504  L100 ))
(declare-fun L1  () String)
(assert (toLower "name"  L1 ))
(declare-fun L33  () String)
(assert (toLower sym264  L33 ))
(declare-fun L5  () String)
(assert (toLower "description"  L5 ))
(declare-fun L53  () String)
(assert (toLower sym470  L53 ))
(declare-fun L85  () String)
(assert (toLower "database"  L85 ))
(declare-fun L41  () String)
(assert (toLower sym160  L41 ))
(declare-fun L37  () String)
(assert (toLower sym586  L37 ))
(declare-fun L57  () String)
(assert (toLower sym254  L57 ))
(declare-fun L45  () String)
(assert (toLower sym338  L45 ))
(declare-fun L29  () String)
(assert (toLower sym215  L29 ))
(declare-fun L17  () String)
(assert (toLower "field"  L17 ))
(declare-fun L49  () String)
(assert (toLower sym528  L49 ))
(declare-fun L90  () String)
(assert (toLower sym299  L90 ))
(declare-fun L0  () String)
(assert (toLower sym175  L0 ))
(declare-fun L62  () String)
(assert (toLower sym323  L62 ))
(declare-fun L94  () String)
(assert (toLower sym195  L94 ))
(declare-fun L82  () String)
(assert (toLower sym430  L82 ))
(declare-fun L4  () String)
(assert (toLower sym686  L4 ))
(declare-fun L70  () String)
(assert (toLower sym384  L70 ))
(declare-fun L66  () String)
(assert (toLower sym606  L66 ))
(declare-fun L22  () String)
(assert (toLower sym225  L22 ))
(declare-fun L98  () String)
(assert (toLower sym135  L98 ))
(declare-fun L54  () String)
(assert (toLower "option"  L54 ))
(declare-fun L10  () String)
(assert (toLower sym596  L10 ))
(declare-fun L86  () String)
(assert (toLower sym518  L86 ))
(declare-fun L8  () String)
(assert (toLower sym348  L8 ))
(declare-fun L74  () String)
(assert (toLower sym358  L74 ))
(declare-fun L26  () String)
(assert (toLower sym185  L26 ))
(declare-fun L14  () String)
(assert (toLower sym552  L14 ))
(declare-fun L78  () String)
(assert (toLower sym289  L78 ))
(declare-fun L18  () String)
(assert (toLower sym652  L18 ))
(declare-fun L102  () String)
(assert (toLower sym374  L102 ))
(declare-fun L51  () String)
(assert (toLower sym450  L51 ))
(declare-fun L3  () String)
(assert (toLower "length"  L3 ))
(declare-fun L55  () String)
(assert (toLower sym484  L55 ))
(declare-fun L11  () String)
(assert (toLower "type"  L11 ))
(declare-fun L43  () String)
(assert (toLower sym313  L43 ))
(declare-fun L31  () String)
(assert (toLower sym642  L31 ))
(declare-fun L59  () String)
(assert (toLower sym632  L59 ))
(declare-fun L47  () String)
(assert (toLower sym394  L47 ))
(declare-fun L35  () String)
(assert (toLower sym576  L35 ))
(declare-fun L23  () String)
(assert (toLower "table"  L23 ))
(declare-fun L39  () String)
(assert (toLower sym440  L39 ))

(assert (str.in_re sym394 Alphabet))
(assert (str.in_re sym195 Alphabet))
(assert (str.in_re sym470 Alphabet))
(assert (str.in_re sym150 Alphabet))
(assert (str.in_re sym358 Alphabet))
(assert (str.in_re sym632 Alphabet))
(assert (str.in_re sym313 Alphabet))
(assert (str.in_re sym676 Alphabet))
(assert (str.in_re sym279 Alphabet))
(assert (str.in_re sym113 Alphabet))
(assert (str.in_re sym552 Alphabet))
(assert (str.in_re sym596 Alphabet))
(assert (str.in_re sym430 Alphabet))
(assert (str.in_re sym518 Alphabet))
(assert (str.in_re sym239 Alphabet))
(assert (str.in_re sym460 Alphabet))
(assert (str.in_re sym185 Alphabet))
(assert (str.in_re sym622 Alphabet))
(assert (str.in_re sym225 Alphabet))
(assert (str.in_re sym542 Alphabet))
(assert (str.in_re sym586 Alphabet))
(assert (str.in_re sym662 Alphabet))
(assert (str.in_re sym264 Alphabet))
(assert (str.in_re sym384 Alphabet))
(assert (str.in_re sym504 Alphabet))
(assert (str.in_re sym20 Alphabet))
(assert (str.in_re sym348 Alphabet))
(assert (str.in_re sym215 Alphabet))
(assert (str.in_re sym576 Alphabet))
(assert (str.in_re sym135 Alphabet))
(assert (str.in_re sym652 Alphabet))
(assert (str.in_re sym696 Alphabet))
(assert (str.in_re sym299 Alphabet))
(assert (str.in_re sym254 Alphabet))
(assert (str.in_re sym374 Alphabet))
(assert (str.in_re sym450 Alphabet))
(assert (str.in_re sym494 Alphabet))
(assert (str.in_re sym175 Alphabet))
(assert (str.in_re sym338 Alphabet))
(assert (str.in_re sym414 Alphabet))
(assert (str.in_re sym160 Alphabet))
(assert (str.in_re sym323 Alphabet))
(assert (str.in_re sym642 Alphabet))
(assert (str.in_re sym686 Alphabet))
(assert (str.in_re sym289 Alphabet))
(assert (str.in_re sym562 Alphabet))
(assert (str.in_re sym484 Alphabet))
(assert (str.in_re sym440 Alphabet))
(assert (str.in_re sym606 Alphabet))
(assert (str.in_re sym528 Alphabet))
(assert (str.in_re sym404 Alphabet))
(assert (str.in_re sym205 Alphabet))
(assert (not (= L0 L1 )))
(assert (not (= L2 L3 )))
(assert (not (= L4 L5 )))
(assert (not (= L6 L1 )))
(assert (not (= L8 L5 )))
(assert (not (= L10 L11 )))
(assert (not (= L12 L1 )))
(assert (not (= L14 L5 )))
(assert (not (= L16 L17 )))
(assert (not (= L18 L3 )))
(assert (not (= L20 L1 )))
(assert (= L22 L23 ))
(assert (not (= L24 L5 )))
(assert (not (= L26 L5 )))
(assert (not (= L28 "sql" )))
(assert (not (= L29 L5 )))
(assert (not (= L31 L11 )))
(assert (= L33 L5 ))
(assert (not (= L35 L1 )))
(assert (not (= L37 L5 )))
(assert (not (= L39 L5 )))
(assert (= L41 L5 ))
(assert (not (= L43 L1 )))
(assert (not (= L45 L1 )))
(assert (not (= L47 L11 )))
(assert (= L49 L5 ))
(assert (not (= L51 L11 )))
(assert (= L53 L54 ))
(assert (not (= L55 L1 )))
(assert (not (= L57 L1 )))
(assert (not (= L59 L5 )))
(assert (= L28 "html" ))
(assert (= L62 L5 ))
(assert (= L64 L1 ))
(assert (= L66 L3 ))
(assert (= L68 L11 ))
(assert (not (= L70 L5 )))
(assert (= L72 L54 ))
(assert (= L74 L11 ))
(assert (= L76 L54 ))
(assert (not (= L78 L5 )))
(assert (not (= L80 L1 )))
(assert (not (= L82 L1 )))
(assert (= L84 L85 ))
(assert (not (= L86 L1 )))
(assert (not (= L88 L3 )))
(assert (= L90 L17 ))
(assert (not (= L92 L1 )))
(assert (not (= L94 L23 )))
(assert (not (= L96 L1 )))
(assert (= L98 L1 ))
(assert (= L100 L17 ))
(assert (not (= L102 L1 )))
(check-sat)
(get-model)
(exit)
